%RWF=/home/chase/temp/Gau-mamm/,166GB
%Nosave
%Chk=mamm-dma_temp.chk
%Mem=5GB
%Nproc=6
#P MP2/6-311G** Sp Density=MP2 MaxDisk=166GB 

mamm Gaussian SP Calculation on DESKTOP-26BCFJT

1 1
 C    0.795210   -0.061062    0.098450
 N   -0.695205    0.053382   -0.086069
 H   -1.122317   -0.857699   -0.298860
 H   -1.155605    0.415137    0.759474
 H   -0.934271    0.689220   -0.858298
 H    0.987038   -0.742580    0.924143
 H    1.226047   -0.446614   -0.822829
 H    1.190099    0.927876    0.320014



