molecule { 
1 1
 C    0.745300   -0.057200    0.092300
 N   -0.715000    0.054900   -0.088500
 H   -1.137500   -0.858500   -0.301000
 H   -1.170900    0.416900    0.759400
 H   -0.949100    0.691500   -0.861600
 H    0.927400   -0.742500    0.922200
 H    1.168000   -0.444500   -0.836700
 H    1.131800    0.939400    0.314000
}
set {
  geom_maxiter 400
  g_convergence GAU_LOOSE
  dynamic_level 1
}
memory 5GB
set_num_threads(6)
psi4_io.set_default_path("/home/chase/temp/Psi4-mamm")
try:
    optimize('mp2/6-31G*',engine='geometric')
except:
    set opt_coordinates both
    optimize('mp2/6-31G*')
clean()
