molecule { 
-1 1
 S   -0.377802    0.015303    0.129618
 O   -0.509124   -0.262938   -1.291300
 O   -0.680542   -1.134233    0.963952
 O    1.264721    0.279983    0.380687
 C    1.985404   -0.466173   -0.535166
 O   -0.987161    1.251861    0.568430
 H    1.739712   -0.162447   -1.557214
 H    3.052818   -0.316022   -0.339503
 H    1.737658   -1.530128   -0.432437
}
memory 1GB
set_num_threads(2)
psi4_io.set_default_path("/home/chase/temp/Psi4-mso4")
set freeze_core True
E, wfn = energy('wb97x-d/6-311+G*',return_wfn=True)
oeprop(wfn,"WIBERG_LOWDIN_INDICES")
clean()
