molecule { 
-1 1
 S   -0.313518    0.008465    0.234192
 O   -0.845454   -0.784061   -0.861482
 O    0.100748   -0.785515    1.378730
 O    1.113613    0.650773   -0.368643
 C    1.913108   -0.432673   -0.701594
 O   -1.095198    1.179456    0.565074
 H    2.868491   -0.061964   -1.085463
 H    2.074772   -1.055690    0.185155
 H    1.409123   -1.043581   -1.458904
}
memory 1GB
set_num_threads(2)
psi4_io.set_default_path("/home/chase/temp/Psi4-mso4")
set freeze_core True
E, wfn = energy('wb97x-d/6-311+G*',return_wfn=True)
oeprop(wfn,"WIBERG_LOWDIN_INDICES")
clean()
