molecule { 
-1 1
 S   -0.391437    0.089701   -0.004901
 O   -0.889292    0.344806   -1.344381
 O   -0.374519   -1.314800    0.368757
 O    1.223321    0.558078   -0.063752
 C    1.996826   -0.525993   -0.439238
 O   -0.947348    0.967565    1.003924
 H    1.700359   -0.876967   -1.436324
 H    3.046859   -0.212767   -0.459325
 H    1.860915   -1.354416    0.262304
}
memory 1GB
set_num_threads(2)
psi4_io.set_default_path("/home/chase/temp/Psi4-mso4")
set freeze_core True
E, wfn = energy('wb97x-d/6-311+G*',return_wfn=True)
oeprop(wfn,"WIBERG_LOWDIN_INDICES")
clean()
