molecule { 
-1 1
 S   -0.411963    0.090952   -0.162971
 O   -1.248645    0.815842   -1.095869
 O   -0.473067   -1.353234   -0.322239
 O    1.146362    0.519311   -0.632105
 C    2.007468   -0.523971   -0.341185
 O   -0.507861    0.530164    1.216607
 H    1.718618   -1.425537   -0.889776
 H    3.024377   -0.221515   -0.615986
 H    1.970396   -0.756806    0.730590
}
memory 1GB
set_num_threads(2)
psi4_io.set_default_path("/home/chase/temp/Psi4-mso4")
set freeze_core True
E, wfn = energy('wb97x-d/6-311+G*',return_wfn=True)
oeprop(wfn,"WIBERG_LOWDIN_INDICES")
clean()
