molecule { 
-1 1
 S   -0.441450   -0.022613   -0.290209
 O   -1.163714    1.162404   -0.702213
 O   -0.952238   -1.269963   -0.827426
 O    1.059277    0.168860   -1.026537
 C    2.028207   -0.446449   -0.253762
 O   -0.162500   -0.071145    1.136338
 H    1.818951   -1.520658   -0.167275
 H    3.001098   -0.301352   -0.736989
 H    2.038055   -0.023880    0.755140
}
memory 1GB
set_num_threads(2)
psi4_io.set_default_path("/home/chase/temp/Psi4-mso4")
set freeze_core True
E, wfn = energy('wb97x-d/6-311+G*',return_wfn=True)
oeprop(wfn,"WIBERG_LOWDIN_INDICES")
clean()
