molecule { 
-1 1
 S   -0.434675   -0.325995    0.115192
 O   -1.214229   -1.434924   -0.399585
 O   -0.771147    0.054494    1.473236
 O    1.124734   -0.957663    0.248609
 C    2.024669   -0.254756   -0.529663
 O   -0.319755    0.794784   -0.803469
 H    2.078823    0.793848   -0.216310
 H    3.010014   -0.723096   -0.417197
 H    1.727249   -0.271482   -1.583747
}
memory 1GB
set_num_threads(2)
psi4_io.set_default_path("/home/chase/temp/Psi4-mso4")
set freeze_core True
E, wfn = energy('wb97x-d/6-311+G*',return_wfn=True)
oeprop(wfn,"WIBERG_LOWDIN_INDICES")
clean()
