molecule { 
-1 1
 S   -0.339254    0.009292    0.193774
 O   -0.833122   -0.613408   -1.023908
 O   -0.047607   -0.942587    1.251219
 O    1.159593    0.634311   -0.228544
 C    1.941585   -0.433451   -0.643886
 O   -1.080242    1.176897    0.616585
 H    2.673994   -0.077931   -1.377375
 H    2.456900   -0.894759    0.207378
 H    1.293837   -1.183155   -1.108180
}
memory 1GB
set_num_threads(2)
psi4_io.set_default_path("/home/chase/temp/Psi4-mso4")
set freeze_core True
E, wfn = energy('wb97x-d/6-311+G*',return_wfn=True)
oeprop(wfn,"WIBERG_LOWDIN_INDICES")
clean()
