molecule { 
-1 1
C -1.081080587869 -0.905488388676 -0.014299768701
C -2.300057939586 -0.019229123569 0.173122591
S 0.449358044079 0.054532207768 -0.028398541071
O 0.470256843619 0.722351991219 1.302771590869
O 1.510481626599 -0.970088651321 -0.218573911066
O 0.281338730189 0.987042284492 -1.177589425726
H -0.986925461513 -1.636101047406 0.794668477137
H -1.120822577288 -1.448474269382 -0.963340506262
H -2.214887941471 0.524802440311 1.116185631952
H -2.348376154545 0.711887585277 -0.636646628121
H -3.226516109671 -0.604949022221 0.181162192179
no_reorient
}
memory 5GB
set_num_threads(6)
psi4_io.set_default_path("/home/chase/temp/Psi4-esna")
set freeze_core True
set PROPERTIES_ORIGIN ["COM"]
set cubeprop_tasks ['esp']
set basis 6-311G** 
E, wfn = properties('mp2',properties=['dipole'],return_wfn=True)
cubeprop(wfn)
fchk(wfn, "esna-dma.fchk")
clean()
