molecule { 
1 1
 N   -0.579866    1.194421   -0.169828
 C    0.011998   -0.024708    0.003506
 N    1.245887   -0.086506    0.463350
 H    1.740926    0.767018    0.682750
 H    1.735197   -0.958527    0.612042
 N   -0.660454   -1.119377   -0.291916
 H   -1.106304    1.629148    0.564482
 H   -0.506345    1.692632   -1.036840
 H   -1.605468   -1.046134   -0.643035
 H   -0.275529   -2.047959   -0.184558
}
memory 1GB
set_num_threads(2)
psi4_io.set_default_path("/home/chase/temp/Psi4-guan")
set freeze_core True
E, wfn = energy('wb97x-d/6-311+G*',return_wfn=True)
oeprop(wfn,"WIBERG_LOWDIN_INDICES")
clean()
