%RWF=/home/chase/temp/Gau-guan/,166GB
%Nosave
%Chk=guan-dma_temp.chk
%Mem=5GB
%Nproc=6
#P MP2/6-311G** Sp Density=MP2 MaxDisk=166GB 

guan Gaussian SP Calculation on DESKTOP-26BCFJT

1 1
 N   -0.578201    1.190288   -0.171712
 C    0.000002    0.000001    0.000002
 N    1.297888   -0.074075    0.300930
 H    1.867607    0.755237    0.405027
 H    1.762220   -0.962412    0.436664
 N   -0.719692   -1.116214   -0.129216
 H   -1.559781    1.276410   -0.400308
 H   -0.057259    2.052479   -0.079968
 H   -1.704947   -1.090060   -0.356723
 H   -0.307799   -2.031649   -0.004742



