molecule { 
-1 1
 C   -1.434815   -0.202688   -0.057165
 C    0.137069   -0.006601   -0.003545
 O    0.629644    0.014980    1.133886
 O    0.705828    0.103836   -1.099184
 H   -1.779850   -0.230769   -1.089747
 H   -1.699517   -1.133445    0.444092
 H   -1.917438    0.621368    0.467970
}
memory 1GB
set_num_threads(2)
psi4_io.set_default_path("/home/chase/temp/Psi4-acet")
set freeze_core True
E, wfn = energy('wb97x-d/6-311+G*',return_wfn=True)
oeprop(wfn,"WIBERG_LOWDIN_INDICES")
clean()
