molecule { 
-1 1
S -0.439487730444 0.063625693288 0.077951484334
O -0.714222038065 0.075859689951 -1.37744515745
O -0.541134250953 -1.275892202577 0.701782683153
O 1.211732745289 0.430021667594 0.17869501786
C 2.016560060974 -0.521745162489 -0.507074865878
O -1.013299451468 1.177560051646 0.849912317359
H 1.763761095883 -0.553012780276 -1.572014131943
H 3.053906700014 -0.198954807819 -0.383574851252
H 1.887866515965 -1.522254557852 -0.081168256353
no_reorient
}
memory 5GB
set_num_threads(6)
psi4_io.set_default_path("/home/chase/temp/Psi4-mso4")
set freeze_core True
set PROPERTIES_ORIGIN ["COM"]
set cubeprop_tasks ['esp']
set basis 6-311G** 
E, wfn = properties('mp2',properties=['dipole'],return_wfn=True)
cubeprop(wfn)
fchk(wfn, "mso4-dma.fchk")
clean()
