%RWF=/home/chase/temp/Gau-acet/,166GB
%Nosave
%Chk=acet-dma_temp.chk
%Mem=5GB
%Nproc=6
#P MP2/6-311G** Sp Density=MP2 MaxDisk=166GB 

acet Gaussian SP Calculation on DESKTOP-26BCFJT

-1 1
 C   -1.418206   -0.204168   -0.056008
 C    0.123743    0.024075    0.004138
 O    0.510966    1.219523   -0.116831
 O    0.798826   -1.031398    0.168571
 H   -1.960135    0.735076   -0.199794
 H   -1.657915   -0.893368   -0.873904
 H   -1.756361   -0.683056    0.870137



