molecule { 
-1 1
C -1.418205535941 -0.204168110331 -0.056007879949
C 0.12374268479 0.024075105346 0.004138228874
O 0.51096645217 1.219523352752 -0.116830569671
O 0.79882610667 -1.031398028614 0.168571397582
H -1.960135097029 0.735075607817 -0.199794023579
H -1.657914850806 -0.893368187456 -0.873904028267
H -1.756361047088 -0.683056276009 0.870136614755
}
memory 5GB
set_num_threads(6)
psi4_io.set_default_path("/home/chase/temp/Psi4-acet")
set maxiter 500
set freeze_core True
set PROPERTIES_ORIGIN ["COM"]
set cubeprop_tasks ['esp']
set basis aug-cc-pVTZ 
E, wfn = properties('mp2',properties=['dipole','GRID_ESP','WIBERG_LOWDIN_INDICES','MULLIKEN_CHARGES'],return_wfn=True)
cubeprop(wfn)
fchk(wfn, "acet-esp.fchk")
clean()
