molecule { 
1 1
N 0.588845597194 -0.960872750909 -0.008155258548
C 1.078722635935 0.24798000615 0.291154328614
N 0.061002120705 1.110266707537 0.183459365656
H 0.13561581451 2.111312121175 0.353459102898
C -1.086799087934 0.44965214723 -0.18682646082
C -0.750053983814 -0.871919400834 -0.308842700121
H 1.137197048852 -1.818703227171 -0.010102704619
H 2.096589519355 0.481972270709 0.565869034465
H -2.02854795518 0.957390351746 -0.330719647937
H -1.343137021765 -1.73249508058 -0.579119380591
}
memory 5GB
set_num_threads(6)
psi4_io.set_default_path("/home/chase/temp/Psi4-imim")
set maxiter 500
set freeze_core True
set PROPERTIES_ORIGIN ["COM"]
set cubeprop_tasks ['esp']
set basis aug-cc-pVTZ 
E, wfn = properties('mp2',properties=['dipole','GRID_ESP','WIBERG_LOWDIN_INDICES','MULLIKEN_CHARGES'],return_wfn=True)
cubeprop(wfn)
fchk(wfn, "imim-esp.fchk")
clean()
